RAW/CMTT/fspd/CMT9T.vrp_seed-8.out
1162.677502	18.213	27.954
