RAW/CMTT/fspd/CMT9T.vrp_seed-8.sol
Route #1: 145 142 148 141 19 94 41 66 111 135 143 56
Route #2: 63 17 147 92 42 93 65 107 44 137 37
Route #3: 100 2 83 131 20 59 116 70 22 51
Route #4: 46 139 47 146 4 149 109 144 12
Route #5: 38 62 9 34 74 75 105 30 104 49 76
Route #6: 81 60 8 140 82 31 28 80 120 1 119 32
Route #7: 108 52 15 45 91 72 33 124 123 71 90 103
Route #8: 102 6 57 23 69 7 61 112 48 138 27 77
Route #9: 55 134 67 13 136 40 88 64 150 87
Route #10: 122 125 106 73 117 89 39 54 10 5
Route #11: 68 132 24 96 95 25 58 14 133 110 18
Route #12: 11 126 16 127 53 129 29 79 21 118 130 50 78
Route #13: 98 97 86 43 99 114 113 26
Route #14: 101 3 121 115 36 85 35 84 128
Cost 1162.677502